1988845
52,7,84,4,88,41,15,22,97,33,89,53,27,23,51,94,6,3,65,46,72,18,42,11,45,81,57,60,66,10,13,38,21,83,91,24,50,39,77,78,16,28,93,25,58,70,26,64,80,32,56,8,31,0,47,75,14,34,90,43,12,61,5,67,79,98,86,85,82,96,35,2,1,63,49,37,87,44,59,73,69,36,62,30,74,48,40,17,68,76,29,55,9,95,20,19,92,54,71
